============================[ Problem Statistics ]=============================|                                                                             ||  Number of variables:          4242                                         ||  Number of clauses:           10079                                         ||  Parse time:                   0.47 s                                       ||                                                                             |============================[ Search Statistics ]==============================| Conflicts |          ORIGINAL         |          LEARNT          | Progress ||           |    Vars  Clauses Literals |    Limit  Clauses Lit/Cl |          |===============================================================================|       100 |    1591     6284   745245 |     2304      100     53 | 62.501 % ||       250 |    1591     6284   745245 |     2534      250     75 | 62.495 % |===============================================================================restarts              : 3conflicts             : 264            (372 /sec)decisions             : 529            (0.00 % random) (745 /sec)propagations          : 11780          (16592 /sec)conflict literals     : 20217          (94.85 % deleted)CPU time              : 0.71 sSATISFIABLE